c description: Random 3-CNF over 19 variables and 81 clauses
c generator: CNFgen (0.9.2)
c copyright: (C) 2012-2022 Massimo Lauria <massimo.lauria@uniroma1.it>
c url: https://massimolauria.net/cnfgen
c command line: cnfgen --output CNF_4.28/19_bit_81_212.cnf randkcnf 3 19 81
c
p cnf 19 81
-3 -12 14 0
4 13 -18 0
-5 -7 -14 0
6 15 16 0
3 -13 16 0
-1 5 15 0
5 12 -16 0
-2 4 -15 0
-12 -14 -15 0
-2 -4 -14 0
1 -11 12 0
1 7 -19 0
7 -9 15 0
15 17 19 0
-1 3 12 0
4 -6 -12 0
3 5 -12 0
4 5 -8 0
-1 -14 17 0
12 16 -19 0
4 8 14 0
3 -11 -18 0
8 -12 -14 0
-4 8 11 0
-14 -16 -17 0
5 -7 -12 0
5 -11 18 0
2 -7 18 0
2 9 18 0
-3 -4 9 0
-1 -10 13 0
1 -6 12 0
-3 -7 -14 0
1 4 5 0
8 11 -12 0
3 -9 -10 0
5 -14 19 0
3 -12 17 0
2 11 14 0
4 -10 -19 0
7 -10 14 0
-3 8 9 0
9 13 -19 0
-8 14 18 0
-6 8 10 0
-1 -2 -7 0
-7 14 16 0
10 11 -16 0
6 17 -18 0
6 13 17 0
12 16 -17 0
4 -5 14 0
7 17 19 0
-1 3 -10 0
-6 -10 -13 0
-7 11 18 0
-1 -2 17 0
4 6 7 0
4 -10 -18 0
7 -12 -17 0
3 12 18 0
15 -17 -19 0
2 -14 16 0
-4 11 14 0
-4 -8 -18 0
-3 -6 -19 0
4 -16 19 0
8 -12 -17 0
4 6 -14 0
8 -9 11 0
-5 -6 7 0
-1 2 13 0
-7 10 16 0
-12 -14 -17 0
-5 -10 16 0
2 -3 -15 0
-1 4 17 0
10 -11 12 0
2 -14 17 0
2 4 -17 0
-10 -15 17 0
